p cnf 59 13
-13 20 2 36 -3 -33 43 0
-4 -26 -28 -7 -1 -19 -37 0
38 26 9 -47 15 -5 -10 0
14 -37 4 -51 17 1 19 0
13 -3 -30 -25 44 45 -38 0
-8 22 2 -14 -47 -5 -20 0
-40 -23 -18 -16 24 5 39 0
14 41 -12 -2 1 -39 -9 0
19 3 17 -13 1 7 5 0
25 -6 -1 43 -15 3 4 0
16 -2 19 5 3 42 -4 0
-10 34 22 -7 -2 -29 -1 0
-10 -7 22 3 5 44 -2 0
